\* Problem: steiner *\

Minimize
 obj: + 2.2360680103302 x1i13 + 3.60555124282837 x1i14
 + 6.40312433242798 x1i15 + 9.21954441070557 x1i16
 + 12.0415945053101 x1i17 + 9 x1i18 + 10.6301460266113 x1i19
 + 7.81024980545044 x1i20 + 5 x1i21 + 2.2360680103302 x1i22
 + 8.06225776672363 x2i13 + 8.5440034866333 x2i14
 + 7.81024980545044 x2i15 + 8.06225776672363 x2i16
 + 9.21954441070557 x2i17 + 13.4536237716675 x2i18
 + 7.28010988235474 x2i19 + 6.40312433242798 x2i20
 + 6.70820379257202 x2i21 + 8.06225776672363 x2i22
 + 8.9442720413208 x3i13 + 8.24621105194092 x3i14 + 6 x3i15
 + 4.4721360206604 x3i16 + 4.4721360206604 x3i17
 + 10.7703294754028 x3i18 + 2.82842707633972 x3i19 + 4 x3i20
 + 6.32455539703369 x3i21 + 8.9442720413208 x3i22
 + 12.0415945053101 x4i13 + 10.6301460266113 x4i14
 + 7.81024980545044 x4i15 + 5 x4i16 + 2.2360680103302 x4i17
 + 10.0498752593994 x4i18 + 3.60555124282837 x4i19
 + 6.40312433242798 x4i20 + 9.21954441070557 x4i21
 + 12.0415945053101 x4i22 + 9.21954441070557 x5i13
 + 7.28010988235474 x5i14 + 6.40312433242798 x5i15
 + 6.70820379257202 x5i16 + 8.06225776672363 x5i17 + x5i18
 + 8.5440034866333 x5i19 + 7.81024980545044 x5i20
 + 8.06225776672363 x5i21 + 9.21954441070557 x5i22
 + 4.4721360206604 x6i13 + 2.82842707633972 x6i14 + 4 x6i15
 + 6.32455539703369 x6i16 + 8.9442720413208 x6i17 + 4 x6i18
 + 8.24621105194092 x6i19 + 6 x6i20 + 4.4721360206604 x6i21
 + 4.4721360206604 x6i22 + 9.21954441070557 x7i13
 + 7.81024980545044 x7i14 + 5 x7i15 + 2.2360680103302 x7i16 + x7i17
 + 8.06225776672363 x7i18 + x7i19 + 3.60555124282837 x7i20
 + 6.40312433242798 x7i21 + 9.21954441070557 x7i22
 + 5.65685415267944 x8i13 + 4.4721360206604 x8i14 + 2 x8i15 + 2 x8i16
 + 4.4721360206604 x8i17 + 7.21110248565674 x8i18
 + 2.82842707633972 x8i19 + 0 x8i20 + 2.82842707633972 x8i21
 + 5.65685415267944 x8i22 + 1.41421353816986 x9i13
 + 3.16227769851685 x9i14 + 5.0990195274353 x9i15
 + 7.61577320098877 x9i16 + 10.2956304550171 x9i17
 + 9.48683261871338 x9i18 + 8.60232543945312 x9i19
 + 5.83095169067383 x9i20 + 3.16227769851685 x9i21
 + 1.41421353816986 x9i22 + 5.0990195274353 x10i13
 + 5.83095169067383 x10i14 + 5.83095169067383 x10i15
 + 7.07106781005859 x10i16 + 9.05538558959961 x10i17
 + 11.4017543792725 x10i18 + 7.07106781005859 x10i19
 + 5.0990195274353 x10i20 + 4.24264049530029 x10i21
 + 5.0990195274353 x10i22 + 8 x11i13 + 6 x11i14 + 4.4721360206604 x11i15
 + 4.4721360206604 x11i16 + 6 x11i17 + 2 x11i18
 + 6.32455539703369 x11i19 + 5.65685415267944 x11i20
 + 6.32455539703369 x11i21 + 8 x11i22 + x12i13 + 2.2360680103302 x12i14
 + 5 x12i15 + 7.81024980545044 x12i16 + 10.6301460266113 x12i17
 + 8.06225776672363 x12i18 + 9.21954441070557 x12i19
 + 6.40312433242798 x12i20 + 3.60555124282837 x12i21 + x12i22 + 2 x13i14
 + 4.4721360206604 x13i15 + 7.21110248565674 x13i16 + 10 x13i17
 + 8.24621105194092 x13i18 + 8.48528099060059 x13i19
 + 5.65685415267944 x13i20 + 2.82842707633972 x13i21 + 0 x13i22
 + 2.82842707633972 x14i15 + 5.65685415267944 x14i16
 + 8.48528099060059 x14i17 + 6.32455539703369 x14i18
 + 7.21110248565674 x14i19 + 4.4721360206604 x14i20 + 2 x14i21
 + 2 x14i22 + 2.82842707633972 x15i16 + 5.65685415267944 x15i17
 + 5.65685415267944 x15i18 + 4.4721360206604 x15i19 + 2 x15i20
 + 2 x15i21 + 4.4721360206604 x15i22 + 2.82842707633972 x16i17
 + 6.32455539703369 x16i18 + 2 x16i19 + 2 x16i20
 + 4.4721360206604 x16i21 + 7.21110248565674 x16i22 + 8 x17i18
 + 2 x17i19 + 4.4721360206604 x17i20 + 7.21110248565674 x17i21
 + 10 x17i22 + 8.24621105194092 x18i19 + 7.21110248565674 x18i20
 + 7.21110248565674 x18i21 + 8.24621105194092 x18i22
 + 2.82842707633972 x19i20 + 5.65685415267944 x19i21
 + 8.48528099060059 x19i22 + 2.82842707633972 x20i21
 + 5.65685415267944 x20i22 + 2.82842707633972 x21i22

Subject To
 p1: 0 x1i13 = 1
 p2: 0 x1i13 = 1
 p3: 0 x1i13 = 1
 p4: 0 x1i13 = 1
 p5: 0 x1i13 = 1
 p6: 0 x1i13 = 1
 p7: 0 x1i13 = 1
 p8: 0 x1i13 = 1
 p9: 0 x1i13 = 1
 p10: 0 x1i13 = 1
 p11: 0 x1i13 = 1
 p12: 0 x1i13 = 1
 q13: 0 x1i13 = 3
 q14: 0 x1i13 = 3
 q15: 0 x1i13 = 3
 q16: 0 x1i13 = 3
 q17: 0 x1i13 = 3
 q18: 0 x1i13 = 3
 q19: 0 x1i13 = 3
 q20: 0 x1i13 = 3
 q21: 0 x1i13 = 3
 q22: 0 x1i13 = 3

Bounds
 0 <= x1i13 <= 1
 0 <= x1i14 <= 1
 0 <= x1i15 <= 1
 0 <= x1i16 <= 1
 0 <= x1i17 <= 1
 0 <= x1i18 <= 1
 0 <= x1i19 <= 1
 0 <= x1i20 <= 1
 0 <= x1i21 <= 1
 0 <= x1i22 <= 1
 0 <= x2i13 <= 1
 0 <= x2i14 <= 1
 0 <= x2i15 <= 1
 0 <= x2i16 <= 1
 0 <= x2i17 <= 1
 0 <= x2i18 <= 1
 0 <= x2i19 <= 1
 0 <= x2i20 <= 1
 0 <= x2i21 <= 1
 0 <= x2i22 <= 1
 0 <= x3i13 <= 1
 0 <= x3i14 <= 1
 0 <= x3i15 <= 1
 0 <= x3i16 <= 1
 0 <= x3i17 <= 1
 0 <= x3i18 <= 1
 0 <= x3i19 <= 1
 0 <= x3i20 <= 1
 0 <= x3i21 <= 1
 0 <= x3i22 <= 1
 0 <= x4i13 <= 1
 0 <= x4i14 <= 1
 0 <= x4i15 <= 1
 0 <= x4i16 <= 1
 0 <= x4i17 <= 1
 0 <= x4i18 <= 1
 0 <= x4i19 <= 1
 0 <= x4i20 <= 1
 0 <= x4i21 <= 1
 0 <= x4i22 <= 1
 0 <= x5i13 <= 1
 0 <= x5i14 <= 1
 0 <= x5i15 <= 1
 0 <= x5i16 <= 1
 0 <= x5i17 <= 1
 0 <= x5i18 <= 1
 0 <= x5i19 <= 1
 0 <= x5i20 <= 1
 0 <= x5i21 <= 1
 0 <= x5i22 <= 1
 0 <= x6i13 <= 1
 0 <= x6i14 <= 1
 0 <= x6i15 <= 1
 0 <= x6i16 <= 1
 0 <= x6i17 <= 1
 0 <= x6i18 <= 1
 0 <= x6i19 <= 1
 0 <= x6i20 <= 1
 0 <= x6i21 <= 1
 0 <= x6i22 <= 1
 0 <= x7i13 <= 1
 0 <= x7i14 <= 1
 0 <= x7i15 <= 1
 0 <= x7i16 <= 1
 0 <= x7i17 <= 1
 0 <= x7i18 <= 1
 0 <= x7i19 <= 1
 0 <= x7i20 <= 1
 0 <= x7i21 <= 1
 0 <= x7i22 <= 1
 0 <= x8i13 <= 1
 0 <= x8i14 <= 1
 0 <= x8i15 <= 1
 0 <= x8i16 <= 1
 0 <= x8i17 <= 1
 0 <= x8i18 <= 1
 0 <= x8i19 <= 1
 0 <= x8i20 <= 1
 0 <= x8i21 <= 1
 0 <= x8i22 <= 1
 0 <= x9i13 <= 1
 0 <= x9i14 <= 1
 0 <= x9i15 <= 1
 0 <= x9i16 <= 1
 0 <= x9i17 <= 1
 0 <= x9i18 <= 1
 0 <= x9i19 <= 1
 0 <= x9i20 <= 1
 0 <= x9i21 <= 1
 0 <= x9i22 <= 1
 0 <= x10i13 <= 1
 0 <= x10i14 <= 1
 0 <= x10i15 <= 1
 0 <= x10i16 <= 1
 0 <= x10i17 <= 1
 0 <= x10i18 <= 1
 0 <= x10i19 <= 1
 0 <= x10i20 <= 1
 0 <= x10i21 <= 1
 0 <= x10i22 <= 1
 0 <= x11i13 <= 1
 0 <= x11i14 <= 1
 0 <= x11i15 <= 1
 0 <= x11i16 <= 1
 0 <= x11i17 <= 1
 0 <= x11i18 <= 1
 0 <= x11i19 <= 1
 0 <= x11i20 <= 1
 0 <= x11i21 <= 1
 0 <= x11i22 <= 1
 0 <= x12i13 <= 1
 0 <= x12i14 <= 1
 0 <= x12i15 <= 1
 0 <= x12i16 <= 1
 0 <= x12i17 <= 1
 0 <= x12i18 <= 1
 0 <= x12i19 <= 1
 0 <= x12i20 <= 1
 0 <= x12i21 <= 1
 0 <= x12i22 <= 1
 0 <= x13i14 <= 1
 0 <= x13i15 <= 1
 0 <= x13i16 <= 1
 0 <= x13i17 <= 1
 0 <= x13i18 <= 1
 0 <= x13i19 <= 1
 0 <= x13i20 <= 1
 0 <= x13i21 <= 1
 0 <= x13i22 <= 1
 0 <= x14i15 <= 1
 0 <= x14i16 <= 1
 0 <= x14i17 <= 1
 0 <= x14i18 <= 1
 0 <= x14i19 <= 1
 0 <= x14i20 <= 1
 0 <= x14i21 <= 1
 0 <= x14i22 <= 1
 0 <= x15i16 <= 1
 0 <= x15i17 <= 1
 0 <= x15i18 <= 1
 0 <= x15i19 <= 1
 0 <= x15i20 <= 1
 0 <= x15i21 <= 1
 0 <= x15i22 <= 1
 0 <= x16i17 <= 1
 0 <= x16i18 <= 1
 0 <= x16i19 <= 1
 0 <= x16i20 <= 1
 0 <= x16i21 <= 1
 0 <= x16i22 <= 1
 0 <= x17i18 <= 1
 0 <= x17i19 <= 1
 0 <= x17i20 <= 1
 0 <= x17i21 <= 1
 0 <= x17i22 <= 1
 0 <= x18i19 <= 1
 0 <= x18i20 <= 1
 0 <= x18i21 <= 1
 0 <= x18i22 <= 1
 0 <= x19i20 <= 1
 0 <= x19i21 <= 1
 0 <= x19i22 <= 1
 0 <= x20i21 <= 1
 0 <= x20i22 <= 1
 0 <= x21i22 <= 1

Generals
 x1i13
 x1i14
 x1i15
 x1i16
 x1i17
 x1i18
 x1i19
 x1i20
 x1i21
 x1i22
 x2i13
 x2i14
 x2i15
 x2i16
 x2i17
 x2i18
 x2i19
 x2i20
 x2i21
 x2i22
 x3i13
 x3i14
 x3i15
 x3i16
 x3i17
 x3i18
 x3i19
 x3i20
 x3i21
 x3i22
 x4i13
 x4i14
 x4i15
 x4i16
 x4i17
 x4i18
 x4i19
 x4i20
 x4i21
 x4i22
 x5i13
 x5i14
 x5i15
 x5i16
 x5i17
 x5i18
 x5i19
 x5i20
 x5i21
 x5i22
 x6i13
 x6i14
 x6i15
 x6i16
 x6i17
 x6i18
 x6i19
 x6i20
 x6i21
 x6i22
 x7i13
 x7i14
 x7i15
 x7i16
 x7i17
 x7i18
 x7i19
 x7i20
 x7i21
 x7i22
 x8i13
 x8i14
 x8i15
 x8i16
 x8i17
 x8i18
 x8i19
 x8i20
 x8i21
 x8i22
 x9i13
 x9i14
 x9i15
 x9i16
 x9i17
 x9i18
 x9i19
 x9i20
 x9i21
 x9i22
 x10i13
 x10i14
 x10i15
 x10i16
 x10i17
 x10i18
 x10i19
 x10i20
 x10i21
 x10i22
 x11i13
 x11i14
 x11i15
 x11i16
 x11i17
 x11i18
 x11i19
 x11i20
 x11i21
 x11i22
 x12i13
 x12i14
 x12i15
 x12i16
 x12i17
 x12i18
 x12i19
 x12i20
 x12i21
 x12i22
 x13i14
 x13i15
 x13i16
 x13i17
 x13i18
 x13i19
 x13i20
 x13i21
 x13i22
 x14i15
 x14i16
 x14i17
 x14i18
 x14i19
 x14i20
 x14i21
 x14i22
 x15i16
 x15i17
 x15i18
 x15i19
 x15i20
 x15i21
 x15i22
 x16i17
 x16i18
 x16i19
 x16i20
 x16i21
 x16i22
 x17i18
 x17i19
 x17i20
 x17i21
 x17i22
 x18i19
 x18i20
 x18i21
 x18i22
 x19i20
 x19i21
 x19i22
 x20i21
 x20i22
 x21i22

End
